Copyright (C) 2013-2015, Filipe Brandao
Build (method = -2)
  #dp: 27830
  Step-3' Graph: 231 vertices and 12170 arcs (0.07s)
  Step-4' Graph: 207 vertices and 12122 arcs (0.07s)
  #V4/#V3 = 0.90
  #A4/#A3 = 1.00
Ready! (0.07s)
Optimize a model with 406 rows, 12123 columns and 35962 nonzeros
Found heuristic solution: objective 468
Presolve removed 5 rows and 35 columns
Presolve time: 0.07s
Presolved: 401 rows, 12088 columns, 34088 nonzeros
Variable types: 0 continuous, 12088 integer (6119 binary)
Optimize a model with 401 rows, 12088 columns and 34088 nonzeros
Presolved: 401 rows, 12088 columns, 34088 nonzeros

Root barrier log...

Ordering time: 0.00s

Barrier statistics:
 AA' NZ     : 1.890e+04
 Factor NZ  : 3.249e+04 (roughly 5 MBytes of memory)
 Factor Ops : 3.842e+06 (less than 1 second per iteration)
 Threads    : 1

                  Objective                Residual
Iter       Primal          Dual         Primal    Dual     Compl     Time
   0   2.79915448e+04 -1.47070747e+05  3.69e+05 2.88e-01  6.58e+01     0s
   1   8.14175465e+03 -2.77829916e+04  7.81e+04 8.88e-16  1.36e+01     0s
   2   1.10278879e+03 -9.79324808e+03  5.68e+03 1.78e-15  1.28e+00     0s
   3   4.07575832e+02 -2.09415185e+03  2.51e+02 2.55e-15  1.31e-01     0s
   4   2.52565734e+02 -7.18030465e+02  9.12e+01 9.99e-16  4.87e-02     0s
   5   2.18309151e+02 -3.07383882e+02  5.40e+01 3.78e-16  2.60e-02     0s
   6   1.99534546e+02 -2.38793607e+01  2.92e+01 3.71e-16  1.10e-02     0s
   7   1.84080447e+02  7.24798799e+01  9.68e+00 3.33e-16  5.05e-03     0s
   8   1.79154487e+02  1.21433557e+02  5.52e+00 3.33e-16  2.57e-03     0s
   9   1.72173007e+02  1.51309875e+02  1.33e+00 3.33e-16  8.96e-04     0s
  10   1.68820256e+02  1.61131723e+02  2.93e-01 3.46e-16  3.24e-04     0s
  11   1.68267822e+02  1.63943252e+02  1.96e-01 3.33e-16  1.82e-04     0s
  12   1.67734071e+02  1.65476243e+02  1.08e-01 3.33e-16  9.50e-05     0s
  13   1.67449807e+02  1.66278236e+02  6.23e-02 3.33e-16  4.93e-05     0s
  14   1.67148717e+02  1.66669483e+02  1.99e-02 3.33e-16  2.01e-05     0s
  15   1.67049859e+02  1.66932568e+02  6.04e-03 3.82e-16  4.93e-06     0s
  16   1.67000824e+02  1.66997840e+02  9.52e-06 3.43e-16  1.23e-07     0s
  17   1.67000001e+02  1.66999998e+02  4.41e-13 3.33e-16  1.23e-10     0s
  18   1.67000000e+02  1.67000000e+02  2.63e-13 3.33e-16  1.41e-16     0s

Barrier solved model in 18 iterations and 0.11 seconds
Optimal objective 1.67000000e+02


Root relaxation: objective 1.670000e+02, 3330 iterations, 0.17 seconds

    Nodes    |    Current Node    |     Objective Bounds      |     Work
 Expl Unexpl |  Obj  Depth IntInf | Incumbent    BestBd   Gap | It/Node Time

     0     0  167.00000    0   93  468.00000  167.00000  64.3%     -    0s
H    0     0                     170.0000000  167.00000  1.76%     -    0s
H    0     0                     169.0000000  167.00000  1.18%     -    0s
H    0     0                     167.0000000  167.00000  0.00%     -    1s

Explored 0 nodes (6081 simplex iterations) in 1.03 seconds
Thread count was 1 (of 4 available processors)

Optimal solution found (tolerance 0.00e+00)
Best objective 1.670000000000e+02, best bound 1.670000000000e+02, gap 0.0%
Preprocessing time: 0.09 seconds
Gurobi run time: 1.03 seconds
Total run time: 1.12 seconds
Objective: 167
Solution:
1 x [i=1, i=198, i=199]
1 x [i=2, i=197, i=199]
2 x [i=3, i=197, i=198]
1 x [i=4, i=195, i=198]
1 x [i=5, i=193, i=199]
1 x [i=5, i=195, i=197]
1 x [i=6, i=191, i=199]
1 x [i=7, i=190, i=197]
1 x [i=7, i=192, i=195]
1 x [i=8, i=192, i=193]
1 x [i=9, i=189, i=195]
1 x [i=10, i=188, i=195]
1 x [i=11, i=184, i=194]
2 x [i=12, i=182, i=195]
1 x [i=13, i=183, i=192]
1 x [i=14, i=186, i=188]
1 x [i=15, i=177, i=196]
2 x [i=15, i=186, i=187]
1 x [i=16, i=183, i=189]
2 x [i=17, i=177, i=194]
1 x [i=18, i=172, i=196]
1 x [i=19, i=182, i=185]
1 x [i=20, i=174, i=192]
1 x [i=21, i=170, i=194]
3 x [i=21, i=180, i=184]
2 x [i=22, i=181, i=182]
2 x [i=23, i=167, i=194]
1 x [i=24, i=164, i=196]
1 x [i=24, i=165, i=195]
1 x [i=25, i=171, i=187]
1 x [i=26, i=177, i=179]
1 x [i=27, i=166, i=189]
1 x [i=28, i=172, i=181]
2 x [i=29, i=162, i=190]
1 x [i=30, i=154, i=197]
1 x [i=31, i=156, i=194]
1 x [i=31, i=157, i=193]
1 x [i=32, i=149, i=199]
1 x [i=33, i=148, i=199]
1 x [i=34, i=151, i=195]
1 x [i=35, i=170, i=175]
1 x [i=36, i=168, i=176]
1 x [i=37, i=171, i=172]
1 x [i=38, i=154, i=188]
1 x [i=39, i=162, i=179]
2 x [i=39, i=165, i=176]
1 x [i=40, i=160, i=179]
1 x [i=40, i=166, i=173]
1 x [i=41, i=147, i=191]
1 x [i=41, i=150, i=188]
1 x [i=41, i=166, i=172]
1 x [i=42, i=160, i=177]
1 x [i=43, i=148, i=188]
1 x [i=43, i=152, i=184]
1 x [i=43, i=158, i=178]
1 x [i=44, i=152, i=183]
1 x [i=44, i=158, i=177]
1 x [i=45, i=137, i=197]
1 x [i=45, i=138, i=196]
2 x [i=45, i=147, i=186]
1 x [i=46, i=134, i=199]
1 x [i=46, i=139, i=194]
1 x [i=46, i=143, i=189]
1 x [i=47, i=163, i=167]
1 x [i=48, i=159, i=168]
2 x [i=49, i=150, i=176]
1 x [i=49, i=152, i=174]
2 x [i=50, i=162, i=162]
1 x [i=51, i=146, i=177]
1 x [i=52, i=127, i=197]
1 x [i=52, i=150, i=171]
1 x [i=53, i=135, i=185]
1 x [i=54, i=122, i=198]
1 x [i=54, i=145, i=172]
1 x [i=55, i=144, i=172]
1 x [i=56, i=140, i=175]
1 x [i=56, i=147, i=168]
2 x [i=57, i=127, i=190]
1 x [i=58, i=156, i=156]
1 x [i=59, i=123, i=191]
1 x [i=60, i=149, i=161]
2 x [i=61, i=126, i=185]
1 x [i=61, i=145, i=163]
1 x [i=62, i=129, i=181]
1 x [i=63, i=133, i=175]
1 x [i=63, i=143, i=163]
2 x [i=63, i=148, i=158]
1 x [i=64, i=117, i=191]
1 x [i=64, i=125, i=183]
1 x [i=65, i=138, i=163]
1 x [i=66, i=142, i=156]
1 x [i=67, i=141, i=156]
1 x [i=68, i=116, i=183]
1 x [i=69, i=130, i=168]
1 x [i=70, i=118, i=179]
1 x [i=71, i=128, i=168]
1 x [i=72, i=105, i=194]
2 x [i=73, i=100, i=197]
1 x [i=73, i=127, i=166]
1 x [i=73, i=137, i=154]
1 x [i=74, i=97, i=199]
1 x [i=74, i=134, i=156]
1 x [i=75, i=101, i=191]
1 x [i=75, i=133, i=154]
1 x [i=76, i=139, i=146]
2 x [i=77, i=97, i=192]
1 x [i=78, i=101, i=187]
1 x [i=78, i=113, i=172]
2 x [i=79, i=99, i=188]
2 x [i=79, i=130, i=153]
1 x [i=80, i=133, i=147]
1 x [i=81, i=102, i=182]
3 x [i=82, i=90, i=196]
1 x [i=83, i=94, i=190]
1 x [i=83, i=117, i=161]
3 x [i=84, i=103, i=178]
1 x [i=84, i=132, i=144]
1 x [i=85, i=88, i=195]
1 x [i=85, i=110, i=169]
1 x [i=86, i=121, i=154]
1 x [i=87, i=89, i=192]
2 x [i=87, i=90, i=191]
1 x [i=88, i=111, i=162]
1 x [i=88, i=119, i=153]
1 x [i=91, i=93, i=182]
1 x [i=91, i=127, i=142]
1 x [i=92, i=96, i=176]
1 x [i=92, i=132, i=136]
1 x [i=95, i=110, i=155]
1 x [i=96, i=117, i=144]
1 x [i=96, i=96, i=169]
1 x [i=97, i=126, i=135]
1 x [i=98, i=103, i=160]
1 x [i=101, i=109, i=150]
2 x [i=104, i=126, i=130]
1 x [i=106, i=114, i=138]
1 x [i=106, i=122, i=131]
1 x [i=107, i=108, i=146]
1 x [i=107, i=109, i=144]
1 x [i=112, i=115, i=130]
1 x [i=113, i=120, i=124]
